7
2147483647 92 67 97 23 44 81 
92 2147483647 22 3 49 69 71 
67 22 2147483647 65 81 52 47 
97 3 65 2147483647 56 46 90 
23 49 81 56 2147483647 34 50 
44 69 52 46 34 2147483647 96 
81 71 47 90 50 96 2147483647 
